
(set-logic HORN)
(declare-fun Z_1916 () Int)
(declare-fun S_423 (Int) Int)
(declare-datatypes ((Bool_316 0)) (((false_316) (true_316))))
(declare-fun diseqBool_146 (Bool_316 Bool_316) Bool)
(declare-fun isfalse_146 (Bool_316) Bool)
(declare-fun istrue_146 (Bool_316) Bool)
(assert (isfalse_146 false_316))
(assert (istrue_146 true_316))
(assert (diseqBool_146 false_316 true_316))
(assert (diseqBool_146 true_316 false_316))
(declare-fun and_316 (Bool_316 Bool_316 Bool_316) Bool)
(declare-fun or_323 (Bool_316 Bool_316 Bool_316) Bool)
(declare-fun hence_316 (Bool_316 Bool_316 Bool_316) Bool)
(declare-fun not_321 (Bool_316 Bool_316) Bool)
(assert (and_316 false_316 false_316 false_316))
(assert (and_316 false_316 true_316 false_316))
(assert (and_316 false_316 false_316 true_316))
(assert (and_316 true_316 true_316 true_316))
(assert (or_323 false_316 false_316 false_316))
(assert (or_323 true_316 true_316 false_316))
(assert (or_323 true_316 false_316 true_316))
(assert (or_323 true_316 true_316 true_316))
(assert (hence_316 true_316 false_316 false_316))
(assert (hence_316 false_316 true_316 false_316))
(assert (hence_316 true_316 false_316 true_316))
(assert (hence_316 true_316 true_316 true_316))
(assert (not_321 true_316 false_316))
(assert (not_321 false_316 true_316))
(declare-fun diseqInt (Int Int) Bool)
(declare-fun projS_149 (Int Int) Bool)
(declare-fun isZ_390 (Int) Bool)
(declare-fun isS_390 (Int) Bool)
(assert (forall ((x_54058 Int))
	(projS_149 x_54058 (S_423 x_54058))))
(assert (isZ_390 Z_1916))
(assert (forall ((x_54060 Int))
	(isS_390 (S_423 x_54060))))
(assert (forall ((x_54061 Int))
	(diseqInt Z_1916 (S_423 x_54061))))
(assert (forall ((x_54062 Int))
	(diseqInt (S_423 x_54062) Z_1916)))
(assert (forall ((x_54063 Int) (x_54064 Int))
	(=> (diseqInt x_54063 x_54064) (diseqInt (S_423 x_54063) (S_423 x_54064)))))
(declare-datatypes ((list_222 0)) (((nil_252) (cons_222 (head_444 Int) (tail_444 list_222)))))
(declare-fun diseqlist_222 (list_222 list_222) Bool)
(declare-fun head_445 (Int list_222) Bool)
(declare-fun tail_445 (list_222 list_222) Bool)
(declare-fun isnil_252 (list_222) Bool)
(declare-fun iscons_222 (list_222) Bool)
(assert (forall ((x_54066 Int) (x_54067 list_222))
	(head_445 x_54066 (cons_222 x_54066 x_54067))))
(assert (forall ((x_54066 Int) (x_54067 list_222))
	(tail_445 x_54067 (cons_222 x_54066 x_54067))))
(assert (isnil_252 nil_252))
(assert (forall ((x_54069 Int) (x_54070 list_222))
	(iscons_222 (cons_222 x_54069 x_54070))))
(assert (forall ((x_54071 Int) (x_54072 list_222))
	(diseqlist_222 nil_252 (cons_222 x_54071 x_54072))))
(assert (forall ((x_54073 Int) (x_54074 list_222))
	(diseqlist_222 (cons_222 x_54073 x_54074) nil_252)))
(assert (forall ((x_54075 Int) (x_54076 list_222) (x_54077 Int) (x_54078 list_222))
	(=> (diseqInt x_54075 x_54077) (diseqlist_222 (cons_222 x_54075 x_54076) (cons_222 x_54077 x_54078)))))
(assert (forall ((x_54075 Int) (x_54076 list_222) (x_54077 Int) (x_54078 list_222))
	(=> (diseqlist_222 x_54076 x_54078) (diseqlist_222 (cons_222 x_54075 x_54076) (cons_222 x_54077 x_54078)))))
(declare-fun barbar_1 (Bool_316 Bool_316 Bool_316) Bool)
(assert (forall ((y_2151 Bool_316))
	(barbar_1 true_316 true_316 y_2151)))
(assert (forall ((x_54032 Bool_316))
	(barbar_1 x_54032 false_316 x_54032)))
(declare-fun x_54025 (Bool_316 Int Int) Bool)
(assert (forall ((x_54033 Bool_316) (y_2153 Int) (x_54027 Int))
	(=> (x_54025 x_54033 x_54027 y_2153) (x_54025 x_54033 (S_423 x_54027) (S_423 y_2153)))))
(assert (forall ((x_54027 Int))
	(x_54025 false_316 (S_423 x_54027) Z_1916)))
(assert (forall ((z_1917 Int))
	(x_54025 false_316 Z_1916 (S_423 z_1917))))
(assert (x_54025 true_316 Z_1916 Z_1916))
(declare-fun elem_13 (Bool_316 Int list_222) Bool)
(assert (forall ((x_54038 Bool_316) (x_54039 Bool_316) (x_54040 Bool_316) (z_1918 Int) (xs_610 list_222) (x_54028 Int))
	(=> (and (x_54025 x_54039 x_54028 z_1918) (elem_13 x_54040 x_54028 xs_610) (barbar_1 x_54038 x_54039 x_54040)) (elem_13 x_54038 x_54028 (cons_222 z_1918 xs_610)))))
(assert (forall ((x_54028 Int))
	(elem_13 false_316 x_54028 nil_252)))
(declare-fun intersect_0 (list_222 list_222 list_222) Bool)
(assert (forall ((x_54045 list_222) (z_1919 Int) (xs_611 list_222) (y_2155 list_222))
	(=> (and (intersect_0 x_54045 xs_611 y_2155) (elem_13 true_316 z_1919 y_2155)) (intersect_0 (cons_222 z_1919 x_54045) (cons_222 z_1919 xs_611) y_2155))))
(assert (forall ((x_54047 list_222) (z_1919 Int) (xs_611 list_222) (y_2155 list_222))
	(=> (and (intersect_0 x_54047 xs_611 y_2155) (elem_13 false_316 z_1919 y_2155)) (intersect_0 x_54047 (cons_222 z_1919 xs_611) y_2155))))
(assert (forall ((y_2155 list_222))
	(intersect_0 nil_252 nil_252 y_2155)))
(assert (forall ((x_54050 list_222) (x_54030 Int) (y_2156 list_222) (z_1920 list_222))
	(=> (and true (elem_13 true_316 x_54030 y_2156) (elem_13 true_316 x_54030 z_1920) (intersect_0 x_54050 y_2156 z_1920) (elem_13 false_316 x_54030 x_54050)) false)))
(check-sat)
